; benchmark generated from python API
(set-info :status unknown)
(declare-fun W_S1_V3 () Bool)
(declare-fun R_S1_V3 () Bool)
(declare-fun R_E1_V6 () Bool)
(declare-fun W_S2_V6 () Bool)
(declare-fun W_S1_V6 () Bool)
(declare-fun R_E1_V4 () Bool)
(declare-fun W_S2_V4 () Bool)
(declare-fun W_S1_V5 () Bool)
(declare-fun R_S1_V6 () Bool)
(declare-fun R_S1_V4 () Bool)
(declare-fun R_S1_V5 () Bool)
(declare-fun R_S1_V2 () Bool)
(declare-fun R_S1_V1 () Bool)
(declare-fun R_S2_V6 () Bool)
(declare-fun R_S2_V4 () Bool)
(declare-fun R_S2_V5 () Bool)
(declare-fun R_S2_V2 () Bool)
(declare-fun R_S2_V1 () Bool)
(declare-fun R_E1_V2 () Bool)
(declare-fun R_E1_V3 () Bool)
(declare-fun R_E1_V5 () Bool)
(declare-fun DISJ_W_S2_R_S2 () Bool)
(declare-fun DISJ_W_S2_R_S1 () Bool)
(declare-fun DISJ_W_S1_W_S2 () Bool)
(declare-fun DISJ_W_S1_R_S2 () Bool)
(declare-fun DISJ_W_S1_R_S1 () Bool)
(declare-fun W_S2_V5 () Bool)
(declare-fun W_S1_V4 () Bool)
(declare-fun W_S2_V2 () Bool)
(declare-fun W_S2_V3 () Bool)
(declare-fun W_S2_V1 () Bool)
(declare-fun W_S1_V2 () Bool)
(declare-fun W_S1_V1 () Bool)
(declare-fun R_E1_V1 () Bool)
(declare-fun R_S2_V3 () Bool)
(declare-fun DISJ_W_S2_R_E1 () Bool)
(declare-fun DISJ_W_S1_R_E1 () Bool)
(assert
 (let (($x2004 (not (and (not R_S1_V3) (not W_S1_V3)))))
 (let (($x2550 (not (and W_S2_V6 R_E1_V6))))
 (let (($x3410 (not (and W_S1_V6 R_E1_V6))))
 (let (($x1760 (not R_E1_V4)))
 (let (($x3479 (forall ((V3_0 Int) )(forall ((V2_0 Int) )(forall ((V5_0 Int) )(forall ((V4_0 Int) )(forall ((V6_0 Int) )(forall ((MW_S1_V1 Bool) )(forall ((MW_S1_V3 Bool) )(forall ((MW_S1_V2 Bool) )(forall ((MW_S1_V5 Bool) )(forall ((MW_S1_V4 Bool) )(forall ((MW_S1_V6 Bool) )(forall ((MW_S2_V1 Bool) )(forall ((MW_S2_V3 Bool) )(forall ((MW_S2_V2 Bool) )(forall ((MW_S2_V5 Bool) )(forall ((MW_S2_V4 Bool) )(forall ((MW_S2_V6 Bool) )(forall ((S1_V1_!1421 Int) )(forall ((S1_V1_!1433 Int) )(forall ((S1_V1_!1446 Int) )(forall ((S1_V1_!1458 Int) )(forall ((S2_V5_!1430 Int) )(forall ((S2_V5_!1442 Int) )(forall ((S2_V5_!1455 Int) )(forall ((S2_V5_!1467 Int) )(forall ((S1_V3_!1422 Int) )(forall ((S1_V3_!1434 Int) )(forall ((S1_V3_!1447 Int) )(forall ((S1_V3_!1459 Int) )(forall ((S1_V2_!1423 Int) )(forall ((S1_V2_!1435 Int) )(forall ((S1_V2_!1448 Int) )(forall ((S1_V2_!1460 Int) )(forall ((E1_!1420 Int) )(forall ((E1_!1445 Int) )(forall ((E1_!1470 Int) )(forall ((S2_V4_!1431 Int) )(forall ((S2_V4_!1443 Int) )(forall ((S2_V4_!1456 Int) )(forall ((S2_V4_!1468 Int) )(forall ((S2_V6_!1432 Int) )(forall ((S2_V6_!1444 Int) )(forall ((S2_V6_!1457 Int) )(forall ((S2_V6_!1469 Int) )(forall ((S1_V5_!1424 Int) )(forall ((S1_V5_!1436 Int) )(forall ((S1_V5_!1449 Int) )(forall ((S1_V5_!1461 Int) )(forall ((S2_V1_!1427 Int) )(forall ((S2_V1_!1439 Int) )(forall ((S2_V1_!1452 Int) )(forall ((S2_V1_!1464 Int) )(forall ((S1_V4_!1425 Int) )(forall ((S1_V4_!1437 Int) )(forall ((S1_V4_!1450 Int) )(forall ((S1_V4_!1462 Int) )(forall ((S2_V3_!1428 Int) )(forall ((S2_V3_!1440 Int) )(forall ((S2_V3_!1453 Int) )(forall ((S2_V3_!1465 Int) )(forall ((S2_V2_!1429 Int) )(forall ((S2_V2_!1441 Int) )(forall ((S2_V2_!1454 Int) )(forall ((S2_V2_!1466 Int) )(forall ((S1_V6_!1426 Int) )(forall ((S1_V6_!1438 Int) )(forall ((S1_V6_!1451 Int) )(forall ((S1_V6_!1463 Int) )(let ((?x1110 (ite MW_S1_V6 S1_V6_!1451 V6_0)))
 (let ((?x870 (ite MW_S2_V6 S2_V6_!1457 ?x1110)))
 (let ((?x4040 (ite MW_S1_V6 S1_V6_!1463 ?x870)))
 (let ((?x3052 (ite MW_S2_V6 S2_V6_!1469 ?x4040)))
 (let (($x691 (= (ite MW_S2_V6 S2_V6_!1444 (ite MW_S1_V6 S1_V6_!1438 (ite MW_S2_V6 S2_V6_!1432 (ite MW_S1_V6 S1_V6_!1426 V6_0)))) ?x3052)))
 (let (($x5437 (= (ite MW_S2_V4 S2_V4_!1443 (ite MW_S1_V4 S1_V4_!1437 (ite MW_S2_V4 S2_V4_!1431 (ite MW_S1_V4 S1_V4_!1425 V4_0)))) (ite MW_S2_V4 S2_V4_!1468 (ite MW_S1_V4 S1_V4_!1462 (ite MW_S2_V4 S2_V4_!1456 (ite MW_S1_V4 S1_V4_!1450 V4_0)))))))
 (let (($x3366 (= (ite MW_S2_V5 S2_V5_!1442 (ite MW_S1_V5 S1_V5_!1436 (ite MW_S2_V5 S2_V5_!1430 (ite MW_S1_V5 S1_V5_!1424 V5_0)))) (ite MW_S2_V5 S2_V5_!1467 (ite MW_S1_V5 S1_V5_!1461 (ite MW_S2_V5 S2_V5_!1455 (ite MW_S1_V5 S1_V5_!1449 V5_0)))))))
 (let ((?x697 (ite MW_S1_V2 S1_V2_!1448 V2_0)))
 (let ((?x1895 (ite MW_S2_V2 S2_V2_!1454 ?x697)))
 (let ((?x574 (ite MW_S1_V2 S1_V2_!1460 ?x1895)))
 (let ((?x1710 (ite MW_S2_V2 S2_V2_!1466 ?x574)))
 (let ((?x1286 (ite MW_S1_V2 S1_V2_!1423 V2_0)))
 (let ((?x509 (ite MW_S2_V2 S2_V2_!1429 ?x1286)))
 (let ((?x4163 (ite MW_S1_V2 S1_V2_!1435 ?x509)))
 (let ((?x999 (ite MW_S2_V2 S2_V2_!1441 ?x4163)))
 (let ((?x1873 (ite MW_S2_V3 S2_V3_!1465 (ite MW_S1_V3 S1_V3_!1459 (ite MW_S2_V3 S2_V3_!1453 (ite MW_S1_V3 S1_V3_!1447 V3_0))))))
 (let ((?x5001 (+ 1 (ite MW_S1_V3 S1_V3_!1434 (ite MW_S2_V3 S2_V3_!1428 (+ 1 (ite MW_S1_V3 S1_V3_!1422 V3_0)))))))
 (let ((?x5929 (ite MW_S1_V1 S1_V1_!1446 E1_!1445)))
 (let ((?x33 (ite MW_S2_V1 S2_V1_!1452 ?x5929)))
 (let ((?x2460 (+ 1 ?x33)))
 (let ((?x5847 (ite MW_S1_V1 S1_V1_!1458 ?x2460)))
 (let ((?x2118 (ite MW_S2_V1 S2_V1_!1464 ?x5847)))
 (let ((?x3412 (ite MW_S1_V1 S1_V1_!1421 E1_!1420)))
 (let ((?x1991 (ite MW_S2_V1 S2_V1_!1427 ?x3412)))
 (let ((?x4691 (+ 1 ?x1991)))
 (let ((?x4397 (ite MW_S1_V1 S1_V1_!1433 ?x4691)))
 (let ((?x1338 (ite MW_S2_V1 S2_V1_!1439 ?x4397)))
 (let (($x6005 (and (= ?x1338 ?x2118) (= (ite MW_S2_V3 S2_V3_!1440 ?x5001) (+ ?x1873 ?x1710 (* (- 1) E1_!1470))) (= ?x999 ?x1710) $x3366 $x5437 $x691)))
 (let (($x3466 (and (not (<= V2_0 E1_!1420)) (not (<= ?x509 ?x4691)) (>= ?x1338 (+ (- 1) ?x999)) (not (<= V2_0 E1_!1445)) (not (<= ?x1895 ?x2460)) (>= ?x2118 (+ (- 1) ?x1710)))))
 (let (($x1596 (= S1_V6_!1463 S1_V6_!1438)))
 (let ((?x491 (ite MW_S1_V4 S1_V4_!1425 V4_0)))
 (let ((?x1592 (ite MW_S2_V4 S2_V4_!1431 ?x491)))
 (let ((?x2236 (ite MW_S1_V4 S1_V4_!1450 V4_0)))
 (let ((?x146 (ite MW_S2_V4 S2_V4_!1456 ?x2236)))
 (let (($x657 (not R_S1_V4)))
 (let ((?x2898 (ite MW_S1_V5 S1_V5_!1424 V5_0)))
 (let ((?x705 (ite MW_S2_V5 S2_V5_!1430 ?x2898)))
 (let ((?x2829 (ite MW_S1_V5 S1_V5_!1449 V5_0)))
 (let ((?x1644 (ite MW_S2_V5 S2_V5_!1455 ?x2829)))
 (let (($x1345 (not R_S1_V5)))
 (let ((?x3456 (ite MW_S2_V3 S2_V3_!1428 (+ 1 (ite MW_S1_V3 S1_V3_!1422 V3_0)))))
 (let ((?x2803 (ite MW_S2_V3 S2_V3_!1453 (ite MW_S1_V3 S1_V3_!1447 V3_0))))
 (let (($x185 (not R_S1_V3)))
 (let (($x1826 (and (or (not R_S1_V1) (= ?x33 ?x1991)) (or $x185 (= ?x2803 ?x3456)) (or (not R_S1_V2) (= ?x1895 ?x509)) (or $x1345 (= ?x1644 ?x705)) (or $x657 (= ?x146 ?x1592)) (or (not R_S1_V6) (= ?x870 (ite MW_S2_V6 S2_V6_!1432 (ite MW_S1_V6 S1_V6_!1426 V6_0)))))))
 (let (($x1620 (not $x1826)))
 (let (($x2878 (not R_S1_V6)))
 (let (($x1840 (or $x2878 (= ?x870 V6_0))))
 (let (($x2313 (or $x657 (= ?x146 V4_0))))
 (let (($x2868 (or $x1345 (= ?x1644 V5_0))))
 (let (($x3524 (not R_S1_V2)))
 (let (($x1192 (or $x3524 (= ?x1895 V2_0))))
 (let (($x5471 (or $x185 (= ?x2803 V3_0))))
 (let (($x3757 (and (or (not R_S1_V1) (= ?x33 (+ (- 1) E1_!1420))) $x5471 $x1192 $x2868 $x2313 $x1840)))
 (let (($x1111 (not $x3757)))
 (let (($x758 (or $x2878 (= V6_0 ?x870))))
 (let (($x1708 (or $x657 (= V4_0 ?x146))))
 (let (($x5238 (or $x1345 (= V5_0 ?x1644))))
 (let (($x1530 (or $x3524 (= V2_0 ?x1895))))
 (let (($x2074 (or $x185 (= V3_0 ?x2803))))
 (let (($x2880 (not (and (or (not R_S1_V1) (= E1_!1445 ?x2460)) $x2074 $x1530 $x5238 $x1708 $x758))))
 (let (($x3687 (= S1_V6_!1451 S1_V6_!1438)))
 (let (($x666 (and (or (not R_S1_V1) (= E1_!1445 ?x4691)) (or $x185 (= V3_0 ?x3456)) (or $x3524 (= V2_0 ?x509)) (or $x1345 (= V5_0 ?x705)) (or $x657 (= V4_0 ?x1592)) (or $x2878 (= V6_0 (ite MW_S2_V6 S2_V6_!1432 (ite MW_S1_V6 S1_V6_!1426 V6_0)))))))
 (let (($x1048 (or $x2878 (= (ite MW_S2_V6 S2_V6_!1432 (ite MW_S1_V6 S1_V6_!1426 V6_0)) V6_0))))
 (let (($x3222 (or $x657 (= ?x1592 V4_0))))
 (let (($x4877 (or $x1345 (= ?x705 V5_0))))
 (let (($x881 (or $x3524 (= ?x509 V2_0))))
 (let (($x5826 (or $x185 (= ?x3456 V3_0))))
 (let (($x6076 (and (or (not R_S1_V1) (= ?x1991 (+ (- 1) E1_!1420))) $x5826 $x881 $x4877 $x3222 $x1048)))
 (let (($x2905 (not $x6076)))
 (let (($x2594 (= S2_V2_!1454 S2_V2_!1466)))
 (let (($x1028 (and (or (not R_S2_V1) (= ?x5929 ?x5847)) (or (not R_S2_V2) (= ?x697 ?x574)) (or (not R_S2_V5) (= ?x2829 (ite MW_S1_V5 S1_V5_!1461 ?x1644))) (or (not R_S2_V4) (= ?x2236 (ite MW_S1_V4 S1_V4_!1462 ?x146))) (or (not R_S2_V6) (= ?x1110 ?x4040)))))
 (let (($x3355 (not $x1028)))
 (let (($x4854 (not R_S2_V6)))
 (let (($x759 (or $x4854 (= ?x1110 (ite MW_S1_V6 S1_V6_!1438 (ite MW_S2_V6 S2_V6_!1432 (ite MW_S1_V6 S1_V6_!1426 V6_0)))))))
 (let (($x4528 (and (or (not R_S2_V1) (= ?x5929 ?x4397)) (or (not R_S2_V2) (= ?x697 ?x4163)) (or (not R_S2_V5) (= ?x2829 (ite MW_S1_V5 S1_V5_!1436 ?x705))) (or (not R_S2_V4) (= ?x2236 (ite MW_S1_V4 S1_V4_!1437 ?x1592))) $x759)))
 (let (($x2589 (not $x4528)))
 (let (($x4835 (and (or (not R_S2_V1) (= ?x5929 ?x3412)) (or (not R_S2_V2) (= ?x697 ?x1286)) (or (not R_S2_V5) (= ?x2829 ?x2898)) (or (not R_S2_V4) (= ?x2236 ?x491)) (or $x4854 (= ?x1110 (ite MW_S1_V6 S1_V6_!1426 V6_0))))))
 (let (($x2315 (not $x4835)))
 (let (($x1207 (or $x4854 (= (ite MW_S1_V6 S1_V6_!1438 (ite MW_S2_V6 S2_V6_!1432 (ite MW_S1_V6 S1_V6_!1426 V6_0))) ?x4040))))
 (let (($x1138 (and (or (not R_S2_V1) (= ?x4397 ?x5847)) (or (not R_S2_V2) (= ?x4163 ?x574)) (or (not R_S2_V5) (= (ite MW_S1_V5 S1_V5_!1436 ?x705) (ite MW_S1_V5 S1_V5_!1461 ?x1644))) (or (not R_S2_V4) (= (ite MW_S1_V4 S1_V4_!1437 ?x1592) (ite MW_S1_V4 S1_V4_!1462 ?x146))) $x1207)))
 (let (($x3390 (not $x1138)))
 (let ((?x785 (ite MW_S1_V6 S1_V6_!1426 V6_0)))
 (let ((?x1909 (ite MW_S2_V6 S2_V6_!1432 ?x785)))
 (let ((?x2336 (ite MW_S1_V6 S1_V6_!1438 ?x1909)))
 (let (($x3251 (and (or (not R_S2_V1) (= ?x4397 ?x3412)) (or (not R_S2_V2) (= ?x4163 ?x1286)) (or (not R_S2_V5) (= (ite MW_S1_V5 S1_V5_!1436 ?x705) ?x2898)) (or (not R_S2_V4) (= (ite MW_S1_V4 S1_V4_!1437 ?x1592) ?x491)) (or $x4854 (= ?x2336 ?x785)))))
 (let (($x421 (not $x3251)))
 (let (($x338 (and (or (not R_S2_V1) (= ?x3412 ?x5847)) (or (not R_S2_V2) (= ?x1286 ?x574)) (or (not R_S2_V5) (= ?x2898 (ite MW_S1_V5 S1_V5_!1461 ?x1644))) (or (not R_S2_V4) (= ?x491 (ite MW_S1_V4 S1_V4_!1462 ?x146))) (or $x4854 (= ?x785 ?x4040)))))
 (let (($x846 (not $x338)))
 (let (($x5283 (and (or (not R_S2_V1) (= ?x5847 ?x5929)) (or (not R_S2_V2) (= ?x574 ?x697)) (or (not R_S2_V5) (= (ite MW_S1_V5 S1_V5_!1461 ?x1644) ?x2829)) (or (not R_S2_V4) (= (ite MW_S1_V4 S1_V4_!1462 ?x146) ?x2236)) (or $x4854 (= ?x4040 ?x1110)))))
 (let (($x103 (not $x5283)))
 (let (($x4091 (and (or (not R_S2_V1) (= ?x5847 ?x3412)) (or (not R_S2_V2) (= ?x574 ?x1286)) (or (not R_S2_V5) (= (ite MW_S1_V5 S1_V5_!1461 ?x1644) ?x2898)) (or (not R_S2_V4) (= (ite MW_S1_V4 S1_V4_!1462 ?x146) ?x491)) (or $x4854 (= ?x4040 ?x785)))))
 (let (($x1258 (not $x4091)))
 (let (($x5999 (= S2_V3_!1440 S2_V3_!1453)))
 (let (($x2194 (and (or (not R_S2_V1) (= ?x4397 ?x5929)) (or (not R_S2_V2) (= ?x4163 ?x697)) (or (not R_S2_V5) (= (ite MW_S1_V5 S1_V5_!1436 ?x705) ?x2829)) (or (not R_S2_V4) (= (ite MW_S1_V4 S1_V4_!1437 ?x1592) ?x2236)) (or $x4854 (= ?x2336 ?x1110)))))
 (let (($x1770 (not $x2194)))
 (let (($x5733 (and (or (not R_S1_V1) (= ?x1991 ?x33)) (or $x185 (= ?x3456 ?x2803)) (or $x3524 (= ?x509 ?x1895)) (or $x1345 (= ?x705 ?x1644)) (or $x657 (= ?x1592 ?x146)) (or $x2878 (= ?x1909 ?x870)))))
 (let (($x843 (not $x5733)))
 (let (($x1265 (and (or (not R_S1_V1) (= ?x1991 (+ (- 1) E1_!1445))) $x5826 $x881 $x4877 $x3222 $x1048)))
 (let (($x1104 (not $x1265)))
 (let (($x567 (not (and (or (not R_S1_V1) (= E1_!1420 ?x2460)) $x2074 $x1530 $x5238 $x1708 $x758))))
 (let (($x483 (and (or (not R_S2_V1) (= ?x5847 ?x4397)) (or (not R_S2_V2) (= ?x574 ?x4163)) (or (not R_S2_V5) (= (ite MW_S1_V5 S1_V5_!1461 ?x1644) (ite MW_S1_V5 S1_V5_!1436 ?x705))) (or (not R_S2_V4) (= (ite MW_S1_V4 S1_V4_!1462 ?x146) (ite MW_S1_V4 S1_V4_!1437 ?x1592))) (or $x4854 (= ?x4040 ?x2336)))))
 (let (($x4779 (not $x483)))
 (let (($x3267 (and (or (not R_S2_V1) (= ?x3412 ?x5929)) (or (not R_S2_V2) (= ?x1286 ?x697)) (or (not R_S2_V5) (= ?x2898 ?x2829)) (or (not R_S2_V4) (= ?x491 ?x2236)) (or $x4854 (= ?x785 ?x1110)))))
 (let (($x66 (and (or (not R_S2_V1) (= ?x3412 ?x4397)) (or (not R_S2_V2) (= ?x1286 ?x4163)) (or (not R_S2_V5) (= ?x2898 (ite MW_S1_V5 S1_V5_!1436 ?x705))) (or (not R_S2_V4) (= ?x491 (ite MW_S1_V4 S1_V4_!1437 ?x1592))) (or $x4854 (= ?x785 ?x2336)))))
 (let (($x2065 (not $x66)))
 (let (($x287 (and (or (not R_E1_V3) (= ?x1873 V3_0)) (or (not R_E1_V2) (= ?x1710 V2_0)) (or (not R_E1_V6) (= ?x3052 V6_0)))))
 (let (($x1392 (not $x287)))
 (let (($x4752 (= E1_!1445 E1_!1420)))
 (let (($x404 (= S1_V2_!1460 S1_V2_!1448)))
 (let (($x586 (and (or (not R_S1_V1) (= ?x33 (+ (- 1) E1_!1445))) $x5471 $x1192 $x2868 $x2313 $x1840)))
 (let (($x4820 (not $x586)))
 (let (($x1963 (and (or $x2905 (= S1_V1_!1433 S1_V1_!1421)) (or $x1104 (= S1_V1_!1433 S1_V1_!1446)) (or (not (or (not R_S1_V1) $x4752)) (= S1_V1_!1446 S1_V1_!1421)) (or $x1111 (= S1_V1_!1458 S1_V1_!1421)) (or $x1620 (= S1_V1_!1458 S1_V1_!1433)) (or $x4820 (= S1_V1_!1458 S1_V1_!1446)) (or $x421 (= S2_V5_!1442 S2_V5_!1430)) (or $x1770 (= S2_V5_!1442 S2_V5_!1455)) (or $x3390 (= S2_V5_!1442 S2_V5_!1467)) (or $x2315 (= S2_V5_!1455 S2_V5_!1430)) (or $x1258 (= S2_V5_!1467 S2_V5_!1430)) (or $x103 (= S2_V5_!1467 S2_V5_!1455)) (or $x2905 (= S1_V3_!1434 S1_V3_!1422)) (or $x1104 (= S1_V3_!1434 S1_V3_!1447)) (or $x843 (= S1_V3_!1434 S1_V3_!1459)) (or (not (or (not R_S1_V1) $x4752)) (= S1_V3_!1447 S1_V3_!1422)) (or $x2880 (= S1_V3_!1447 S1_V3_!1459)) (or $x1111 (= S1_V3_!1459 S1_V3_!1422)) (or $x2905 (= S1_V2_!1435 S1_V2_!1423)) (or $x1104 (= S1_V2_!1435 S1_V2_!1448)) (or (not (or (not R_S1_V1) $x4752)) (= S1_V2_!1448 S1_V2_!1423)) (or $x1111 (= S1_V2_!1460 S1_V2_!1423)) (or $x1620 (= S1_V2_!1460 S1_V2_!1435)) (or $x4820 $x404) $x4752 (or $x1392 (= E1_!1470 E1_!1420)) (or $x1392 (= E1_!1470 E1_!1445)) (or $x421 (= S2_V4_!1443 S2_V4_!1431)) (or $x1770 (= S2_V4_!1443 S2_V4_!1456)) (or $x3390 (= S2_V4_!1443 S2_V4_!1468)) (or $x2315 (= S2_V4_!1456 S2_V4_!1431)) (or $x3355 (= S2_V4_!1456 S2_V4_!1468)) (or $x1258 (= S2_V4_!1468 S2_V4_!1431)) (or $x2065 (= S2_V6_!1432 S2_V6_!1444)) (or $x846 (= S2_V6_!1432 S2_V6_!1469)) (or $x2315 (= S2_V6_!1457 S2_V6_!1432)) (or $x2589 (= S2_V6_!1457 S2_V6_!1444)) (or $x3355 (= S2_V6_!1457 S2_V6_!1469)) (or $x4779 (= S2_V6_!1469 S2_V6_!1444)) (or $x2905 (= S1_V5_!1436 S1_V5_!1424)) (or $x1104 (= S1_V5_!1436 S1_V5_!1449)) (or $x843 (= S1_V5_!1436 S1_V5_!1461)) (or (not (or (not R_S1_V1) $x4752)) (= S1_V5_!1449 S1_V5_!1424)) (or $x2880 (= S1_V5_!1449 S1_V5_!1461)) (or $x1111 (= S1_V5_!1461 S1_V5_!1424)) (or $x2065 (= S2_V1_!1427 S2_V1_!1439)) (or (not $x3267) (= S2_V1_!1427 S2_V1_!1452)) (or $x2589 (= S2_V1_!1452 S2_V1_!1439)) (or $x1258 (= S2_V1_!1464 S2_V1_!1427)) (or $x4779 (= S2_V1_!1464 S2_V1_!1439)) (or $x103 (= S2_V1_!1464 S2_V1_!1452)) (or $x567 (= S1_V4_!1425 S1_V4_!1462)) (or $x2905 (= S1_V4_!1437 S1_V4_!1425)) (or $x1104 (= S1_V4_!1437 S1_V4_!1450)) (or $x843 (= S1_V4_!1437 S1_V4_!1462)) (or (not (or (not R_S1_V1) $x4752)) (= S1_V4_!1450 S1_V4_!1425)) (or $x2880 (= S1_V4_!1450 S1_V4_!1462)) (or $x421 (= S2_V3_!1440 S2_V3_!1428)) (or $x1770 $x5999) (or $x3390 (= S2_V3_!1440 S2_V3_!1465)) (or $x2315 (= S2_V3_!1453 S2_V3_!1428)) (or $x1258 (= S2_V3_!1465 S2_V3_!1428)) (or $x103 (= S2_V3_!1465 S2_V3_!1453)) (or $x846 (= S2_V2_!1429 S2_V2_!1466)) (or $x421 (= S2_V2_!1441 S2_V2_!1429)) (or $x3390 (= S2_V2_!1441 S2_V2_!1466)) (or $x2315 (= S2_V2_!1454 S2_V2_!1429)) (or $x2589 (= S2_V2_!1454 S2_V2_!1441)) (or $x3355 $x2594) (or $x2905 (= S1_V6_!1438 S1_V6_!1426)) (or (not (or (not R_S1_V1) $x4752)) (= S1_V6_!1451 S1_V6_!1426)) (or (not $x666) $x3687) (or $x2880 (= S1_V6_!1451 S1_V6_!1463)) (or $x1111 (= S1_V6_!1463 S1_V6_!1426)) (or $x1620 $x1596) (not MW_S1_V1) (or (not MW_S1_V3) W_S1_V3) (not MW_S1_V2) (or (not MW_S1_V5) W_S1_V5) (or (not MW_S1_V6) W_S1_V6) (not MW_S2_V1) (not MW_S2_V3) (not MW_S2_V2) (or (not MW_S2_V4) W_S2_V4) (or (not MW_S2_V6) W_S2_V6))))
 (or (not $x1963) (not $x3466) $x6005))))))))))))))))))))))))))))))))))))))))))))))))))))))))))))))))))))))))))))))))))))))))))))))))))))))))))))))))))
 )
 )
 )
 )
 )
 )
 )
 )
 )
 )
 )
 )
 )
 )
 )
 )
 )
 )
 )
 )
 )
 )
 )
 )
 )
 )
 )
 )
 )
 )
 )
 )
 )
 )
 )
 )
 )
 )
 )
 )
 )
 )
 )
 )
 )
 )
 )
 )
 )
 )
 )
 )
 )
 )
 )
 )
 )
 )
 )
 )
 )
 )
 )
 )
 )
 )
 )
 ))
 (let (($x748 (not R_E1_V5)))
 (let (($x123 (or R_S2_V5 (and W_S2_V4 R_S2_V4) (and W_S2_V6 R_S2_V6))))
 (let (($x2752 (= DISJ_W_S2_R_S2 (not $x123))))
 (let (($x420 (or R_S1_V5 (and W_S2_V4 R_S1_V4) (and W_S2_V6 R_S1_V6))))
 (let (($x2349 (= DISJ_W_S2_R_S1 (not $x420))))
 (let (($x4032 (= DISJ_W_S1_W_S2 (not (or W_S1_V5 W_S2_V4 (and W_S1_V6 W_S2_V6))))))
 (let (($x739 (not (and W_S1_V3 R_E1_V3))))
 (let (($x1597 (not (or (and W_S1_V5 R_S2_V5) R_S2_V4 (and W_S1_V6 R_S2_V6)))))
 (let (($x490 (= DISJ_W_S1_R_S2 $x1597)))
 (let (($x5725 (or (and W_S1_V3 R_S1_V3) (and W_S1_V5 R_S1_V5) R_S1_V4 (and W_S1_V6 R_S1_V6))))
 (let (($x5766 (= DISJ_W_S1_R_S1 (not $x5725))))
 (let (($x5250 (not W_S2_V2)))
 (let (($x137 (not W_S2_V3)))
 (let (($x812 (not W_S2_V1)))
 (let (($x2716 (not W_S1_V2)))
 (let (($x3343 (not W_S1_V1)))
 (let (($x2005 (not R_E1_V1)))
 (let (($x4911 (not R_S2_V3)))
 (let (($x931 (and DISJ_W_S1_R_E1 DISJ_W_S2_R_E1 $x4911 $x2005 $x3343 $x2716 $x812 $x137 $x5250 W_S1_V4 W_S2_V5 $x5766 $x490 $x739 $x4032 $x2349 $x2752 $x748 $x3479 $x1760 $x3410 $x2550)))
 (and $x931 $x2004))))))))))))))))))))))))))
(check-sat)
